NAME : CMT13Q
TYPE : MVRPB
DIMENSION : 121
VEHICLES : 11
CAPACITY : 200
DISTANCE : 720
EDGE_WEIGHT_TYPE : EXACT_2D
NODE_COORD_SECTION
1 10 45
2 25 1
3 25 3
4 31 5
5 32 5
6 31 7
7 32 9
8 34 9
9 46 9
10 35 7
11 34 6
12 35 5
13 47 6
14 40 5
15 39 3
16 36 3
17 73 6
18 73 8
19 24 36
20 76 6
21 76 10
22 76 13
23 78 3
24 78 9
25 79 3
26 79 5
27 79 11
28 82 3
29 82 7
30 90 15
31 84 3
32 84 5
33 84 9
34 85 1
35 87 5
36 85 8
37 87 7
38 86 41
39 86 44
40 86 46
41 85 55
42 89 43
43 89 46
44 89 52
45 92 42
46 92 52
47 94 42
48 94 44
49 94 48
50 96 42
51 99 46
52 99 50
53 83 80
54 83 83
55 85 81
56 85 85
57 85 89
58 87 80
59 87 86
60 90 77
61 90 88
62 93 82
63 93 84
64 93 89
65 94 86
66 95 80
67 99 89
68 37 83
69 50 80
70 35 85
71 35 87
72 44 86
73 46 89
74 46 83
75 46 87
76 46 89
77 48 83
78 50 85
79 50 88
80 54 86
81 54 90
82 10 35
83 10 40
84 18 30
85 17 35
86 16 38
87 14 40
88 15 42
89 11 42
90 18 40
91 21 39
92 20 40
93 18 41
94 20 44
95 22 44
96 16 45
97 20 45
98 25 45
99 30 55
100 20 50
101 22 51
102 18 49
103 16 48
104 20 55
105 18 53
106 14 50
107 15 51
108 16 54
109 28 33
110 33 38
111 30 50
112 13 40
113 15 36
114 18 31
115 25 37
116 30 46
117 25 52
118 16 33
119 25 35
120 5 40
121 5 50
PICKUP_AND_DELIVERY_SECTION
1 0 0 10000000 0 0 0
2 0 0 10000000 50 0 25
3 0 0 10000000 50 0 7
4 0 0 10000000 50 0 13
5 0 0 10000000 50 6 0
6 0 0 10000000 50 0 14
7 0 0 10000000 50 0 5
8 0 0 10000000 50 0 11
9 0 0 10000000 50 19 0
10 0 0 10000000 50 0 5
11 0 0 10000000 50 0 15
12 0 0 10000000 50 0 15
13 0 0 10000000 50 17 0
14 0 0 10000000 50 0 13
15 0 0 10000000 50 0 12
16 0 0 10000000 50 0 18
17 0 0 10000000 50 13 0
18 0 0 10000000 50 0 18
19 0 0 10000000 50 0 12
20 0 0 10000000 50 0 17
21 0 0 10000000 50 4 0
22 0 0 10000000 50 0 7
23 0 0 10000000 50 0 12
24 0 0 10000000 50 0 13
25 0 0 10000000 50 8 0
26 0 0 10000000 50 0 16
27 0 0 10000000 50 0 15
28 0 0 10000000 50 0 6
29 0 0 10000000 50 5 0
30 0 0 10000000 50 0 9
31 0 0 10000000 50 0 11
32 0 0 10000000 50 0 10
33 0 0 10000000 50 3 0
34 0 0 10000000 50 0 7
35 0 0 10000000 50 0 2
36 0 0 10000000 50 0 4
37 0 0 10000000 50 4 0
38 0 0 10000000 50 0 18
39 0 0 10000000 50 0 14
40 0 0 10000000 50 0 12
41 0 0 10000000 50 17 0
42 0 0 10000000 50 0 20
43 0 0 10000000 50 0 14
44 0 0 10000000 50 0 16
45 0 0 10000000 50 10 0
46 0 0 10000000 50 0 9
47 0 0 10000000 50 0 11
48 0 0 10000000 50 0 7
49 0 0 10000000 50 13 0
50 0 0 10000000 50 0 5
51 0 0 10000000 50 0 4
52 0 0 10000000 50 0 21
53 0 0 10000000 50 13 0
54 0 0 10000000 50 0 11
55 0 0 10000000 50 0 12
56 0 0 10000000 50 0 14
57 0 0 10000000 50 10 0
58 0 0 10000000 50 0 8
59 0 0 10000000 50 0 16
60 0 0 10000000 50 0 19
61 0 0 10000000 50 5 0
62 0 0 10000000 50 0 17
63 0 0 10000000 50 0 7
64 0 0 10000000 50 0 16
65 0 0 10000000 50 14 0
66 0 0 10000000 50 0 17
67 0 0 10000000 50 0 13
68 0 0 10000000 50 0 17
69 0 0 10000000 50 13 0
70 0 0 10000000 50 0 14
71 0 0 10000000 50 0 16
72 0 0 10000000 50 0 7
73 0 0 10000000 50 13 0
74 0 0 10000000 50 0 9
75 0 0 10000000 50 0 11
76 0 0 10000000 50 0 35
77 0 0 10000000 50 5 0
78 0 0 10000000 50 0 28
79 0 0 10000000 50 0 7
80 0 0 10000000 50 0 3
81 0 0 10000000 50 10 0
82 0 0 10000000 50 0 7
83 0 0 10000000 50 0 12
84 0 0 10000000 50 0 11
85 0 0 10000000 50 10 0
86 0 0 10000000 50 0 8
87 0 0 10000000 50 0 11
88 0 0 10000000 50 0 21
89 0 0 10000000 50 4 0
90 0 0 10000000 50 0 15
91 0 0 10000000 50 0 16
92 0 0 10000000 50 0 4
93 0 0 10000000 50 16 0
94 0 0 10000000 50 0 7
95 0 0 10000000 50 0 10
96 0 0 10000000 50 0 9
97 0 0 10000000 50 11 0
98 0 0 10000000 50 0 17
99 0 0 10000000 50 0 12
100 0 0 10000000 50 0 11
101 0 0 10000000 50 7 0
102 0 0 10000000 50 0 9
103 0 0 10000000 50 0 11
104 0 0 10000000 50 0 12
105 0 0 10000000 50 7 0
106 0 0 10000000 50 0 8
107 0 0 10000000 50 0 6
108 0 0 10000000 50 0 5
109 0 0 10000000 50 12 0
110 0 0 10000000 50 0 13
111 0 0 10000000 50 0 7
112 0 0 10000000 50 0 7
113 0 0 10000000 50 8 0
114 0 0 10000000 50 0 11
115 0 0 10000000 50 0 13
116 0 0 10000000 50 0 11
117 0 0 10000000 50 10 0
118 0 0 10000000 50 0 7
119 0 0 10000000 50 0 4
120 0 0 10000000 50 0 20
121 0 0 10000000 50 13 0
DEPOT_SECTION
1 
-1
EOF
